Problem:    ejercicio_recomendado_estandar
Rows:       3
Columns:    4
Non-zeros:  8
Status:     OPTIMAL
Objective:  z = 28.57142857 (MAXimum)

   No.   Row name   St   Activity     Lower bound   Upper bound    Marginal
------ ------------ -- ------------- ------------- ------------- -------------
     1 z            B        28.5714                             
     2 procEq1      NS            16            16             =       1.57143 
     3 procEq2      NS            24            24             =      0.142857 

   No. Column name  St   Activity     Lower bound   Upper bound    Marginal
------ ------------ -- ------------- ------------- ------------- -------------
     1 x1           B        4.57143             0               
     2 x2           B        3.42857             0               
     3 h1           NL             0             0                    -1.57143 
     4 h2           NL             0             0                   -0.142857 

Karush-Kuhn-Tucker optimality conditions:

KKT.PE: max.abs.err = 0.00e+00 on row 0
        max.rel.err = 0.00e+00 on row 0
        High quality

KKT.PB: max.abs.err = 0.00e+00 on row 0
        max.rel.err = 0.00e+00 on row 0
        High quality

KKT.DE: max.abs.err = 4.44e-16 on column 2
        max.rel.err = 6.10e-17 on column 2
        High quality

KKT.DB: max.abs.err = 0.00e+00 on row 0
        max.rel.err = 0.00e+00 on row 0
        High quality

End of output
